[ma. 03. april 14:20:24 +0200 2023]  ./input/alternate_g_np/50-3-1.gcc
Set parameter Username
Academic license - for non-commercial use only - expires 2024-03-28
Set parameter TimeLimit to value 1800
Set parameter PreCrush to value 1
Set parameter LazyConstraints to value 1
Gurobi Optimizer version 10.0.1 build v10.0.1rc0 (linux64)

CPU model: AMD Ryzen 9 5950X 16-Core Processor, instruction set [SSE2|AVX|AVX2]
Thread count: 16 physical cores, 32 logical processors, using up to 32 threads

Optimize a model with 59 rows, 500 columns and 1400 nonzeros
Model fingerprint: 0x222e5253
Variable types: 0 continuous, 500 integer (500 binary)
Coefficient statistics:
  Matrix range     [1e+00, 1e+00]
  Objective range  [7e+00, 1e+02]
  Bounds range     [1e+00, 1e+00]
  RHS range        [1e+00, 1e+00]
Presolve time: 0.00s
Presolved: 59 rows, 500 columns, 1400 nonzeros
Variable types: 0 continuous, 500 integer (500 binary)

Root relaxation: objective 2.568000e+03, 9 iterations, 0.00 seconds (0.00 work units)

    Nodes    |    Current Node    |     Objective Bounds      |     Work
 Expl Unexpl |  Obj  Depth IntInf | Incumbent    BestBd   Gap | It/Node Time

     0     0 2568.00000    0    9          - 2568.00000      -     -    0s
     0     0 2568.00000    0    -          - 2568.00000      -     -    0s
     0     0 2568.00000    0    -          - 2568.00000      -     -    0s
     0     0 2568.00000    0    9          - 2568.00000      -     -    0s
     0     0 2454.00000    0    6          - 2454.00000      -     -    0s
     0     0 2408.33333    0   32          - 2408.33333      -     -    0s
     0     0 2399.00000    0   28          - 2399.00000      -     -    0s
     0     0 2399.00000    0   26          - 2399.00000      -     -    0s
     0     0 2399.00000    0   49          - 2399.00000      -     -    0s
     0     0 2399.00000    0   21          - 2399.00000      -     -    0s
     0     2 2399.00000    0    4          - 2399.00000      -     -    0s
H 1389  1144                     700.0000000 2329.41623   233%   110    1s
H 1839  1529                     819.0000000 2328.31642   184%  96.0    1s
H 2088  1558                    2112.0000000 2232.00000  5.68%  90.3    2s
H 2092  1482                    2117.0000000 2232.00000  5.43%  90.2    2s
* 2362  1518              22    2151.0000000 2225.17132  3.45%   130    4s
H 2484  1366                    2154.0000000 2225.17132  3.30%   129    4s
  2497  1391 2220.99638   25  261 2154.00000 2225.17132  3.30%   129    5s
H 2572  1310                    2162.0000000 2225.17132  2.92%   130    7s
H 2575  1245                    2163.0000000 2225.17132  2.87%   130    7s
  3798  1237     cutoff   36      2163.00000 2220.40058  2.65%   132   10s
H 3801  1175                    2180.0000000 2220.40058  1.85%   132   10s

Cutting planes:
  User: 835
  Gomory: 13
  MIR: 1
  Zero half: 20
  Lazy constraints: 286

Explored 6508 nodes (772364 simplex iterations) in 13.73 seconds (29.16 work units)
Thread count was 32 (of 32 available processors)

Solution count 9: 2180 2163 2162 ... 700

Optimal solution found (tolerance 1.00e-04)
Best objective 2.180000000000e+03, best bound 2.180000000000e+03, gap 0.0000%

User-callback calls 15281, time in user-callback 0.84 sec
Minimal separator inequalities added: 20989
Indegree inequalities added: 33805
Passed solution check
[ma. 03. april 14:20:38 +0200 2023]  done

